16
1 0 2
2 0 9
2 1 14
3 0 6
3 1 12
3 2 15
4 0 16
4 1 5
4 2 6
4 3 7
5 0 14
5 1 15
5 2 7
5 3 5
5 4 11
6 0 12
6 1 10
6 2 6
6 3 5
6 4 4
6 5 9
7 0 8
7 1 16
7 2 8
7 3 5
7 4 11
7 5 4
7 6 2
8 0 4
8 1 16
8 2 6
8 3 1
8 4 6
8 5 2
8 6 15
8 7 10
9 0 4
9 1 1
9 2 10
9 3 14
9 4 2
9 5 14
9 6 6
9 7 1
9 8 15
10 0 2
10 1 6
10 2 15
10 3 2
10 4 12
10 5 6
10 6 16
10 7 13
10 8 14
10 9 4
11 0 4
11 1 9
11 2 2
11 3 11
11 4 14
11 5 3
11 6 8
11 7 6
11 8 5
11 9 9
11 10 16
12 0 7
12 1 15
12 2 12
12 3 11
12 4 1
12 5 6
12 6 15
12 7 4
12 8 15
12 9 2
12 10 16
12 11 8
13 0 14
13 1 6
13 2 8
13 3 7
13 4 1
13 5 6
13 6 10
13 7 2
13 8 10
13 9 3
13 10 8
13 11 13
13 12 4
14 0 12
14 1 14
14 2 1
14 3 13
14 4 5
14 5 4
14 6 7
14 7 8
14 8 11
14 9 12
14 10 3
14 11 5
14 12 7
14 13 13
15 0 4
15 1 5
15 2 6
15 3 1
15 4 8
15 5 3
15 6 5
15 7 16
15 8 13
15 9 2
15 10 12
15 11 13
15 12 15
15 13 5
15 14 15
